Academic license - for non-commercial use only
Changed value of parameter TimeLimit to 600.0
   Prev: 1e+100  Min: 0.0  Max: 1e+100  Default: 1e+100
Optimize a model with 2004 rows, 1005006 columns and 2009010 nonzeros
Variable types: 0 continuous, 1005006 integer (1005006 binary)
Coefficient statistics:
  Matrix range     [1e+00, 7e+04]
  Objective range  [1e+00, 1e+00]
  Bounds range     [1e+00, 1e+00]
  RHS range        [1e+00, 1e+00]
Found heuristic solution: objective 690.0000000
Presolve time: 3.47s
Presolved: 2004 rows, 1005006 columns, 2009010 nonzeros
Variable types: 0 continuous, 1005006 integer (1005006 binary)

Root simplex log...

Iteration    Objective       Primal Inf.    Dual Inf.      Time
    1451    1.7743216e-02   1.546546e+05   0.000000e+00      5s
    5203    3.3200000e+02   0.000000e+00   0.000000e+00     10s

Root relaxation: objective 3.320000e+02, 5203 iterations, 5.68 seconds
Total elapsed time = 35.96s
Total elapsed time = 64.67s
Total elapsed time = 90.75s

    Nodes    |    Current Node    |     Objective Bounds      |     Work
 Expl Unexpl |  Obj  Depth IntInf | Incumbent    BestBd   Gap | It/Node Time

     0     0  332.00000    0  467  690.00000  332.00000  51.9%     -  105s
H    0     0                     404.0000000  332.00000  17.8%     -  107s
H    0     0                     346.0000000  332.00000  4.05%     -  151s
     0     0  332.00000    0  647  346.00000  332.00000  4.05%     -  159s
     0     0  332.00000    0  660  346.00000  332.00000  4.05%     -  177s
     0     0  332.00000    0  494  346.00000  332.00000  4.05%     -  305s
     0     0  332.00000    0  476  346.00000  332.00000  4.05%     -  383s

Cutting planes:
  Cover: 141
  Clique: 39
  MIR: 42
  StrongCG: 34

Explored 1 nodes (271008 simplex iterations) in 600.10 seconds
Thread count was 12 (of 12 available processors)

Solution count 3: 346 404 690 

Time limit reached
Best objective 3.460000000000e+02, best bound 3.320000000000e+02, gap 4.0462%
y[1]
y[4]
y[27]
y[28]
y[32]
y[34]
y[36]
y[37]
y[39]
y[42]
y[44]
y[52]
y[55]
y[56]
y[58]
y[61]
y[62]
y[66]
y[68]
y[74]
y[76]
y[77]
y[79]
y[84]
y[86]
y[90]
y[94]
y[95]
y[98]
y[99]
y[102]
y[104]
y[109]
y[112]
y[119]
y[127]
y[128]
y[133]
y[138]
y[140]
y[150]
y[151]
y[153]
y[154]
y[155]
y[158]
y[159]
y[164]
y[166]
y[167]
y[170]
y[171]
y[173]
y[174]
y[175]
y[176]
y[180]
y[181]
y[183]
y[184]
y[188]
y[191]
y[193]
y[195]
y[198]
y[200]
y[201]
y[204]
y[205]
y[206]
y[209]
y[220]
y[221]
y[223]
y[225]
y[231]
y[232]
y[236]
y[239]
y[240]
y[243]
y[244]
y[245]
y[246]
y[249]
y[250]
y[252]
y[253]
y[258]
y[259]
y[261]
y[264]
y[265]
y[273]
y[281]
y[286]
y[287]
y[288]
y[289]
y[295]
y[296]
y[298]
y[302]
y[303]
y[304]
y[310]
y[312]
y[314]
y[316]
y[317]
y[322]
y[324]
y[325]
y[326]
y[332]
y[333]
y[334]
y[335]
y[341]
y[342]
y[346]
y[348]
y[350]
y[351]
y[356]
y[358]
y[362]
y[365]
y[369]
y[370]
y[372]
y[373]
y[380]
y[384]
y[387]
y[390]
y[392]
y[395]
y[396]
y[397]
y[398]
y[406]
y[407]
y[408]
y[410]
y[411]
y[413]
y[416]
y[418]
y[421]
y[423]
y[428]
y[431]
y[432]
y[435]
y[438]
y[439]
y[443]
y[448]
y[451]
y[453]
y[456]
y[457]
y[459]
y[466]
y[467]
y[468]
y[470]
y[473]
y[479]
y[481]
y[489]
y[494]
y[497]
y[501]
y[502]
y[504]
y[505]
y[507]
y[510]
y[511]
y[513]
y[514]
y[516]
y[517]
y[523]
y[525]
y[526]
y[530]
y[535]
y[536]
y[545]
y[553]
y[555]
y[556]
y[557]
y[558]
y[567]
y[570]
y[576]
y[579]
y[581]
y[584]
y[585]
y[588]
y[590]
y[595]
y[603]
y[605]
y[610]
y[615]
y[618]
y[619]
y[622]
y[625]
y[626]
y[628]
y[631]
y[632]
y[633]
y[636]
y[637]
y[638]
y[639]
y[642]
y[644]
y[646]
y[648]
y[649]
y[652]
y[653]
y[656]
y[658]
y[667]
y[673]
y[675]
y[676]
y[677]
y[678]
y[679]
y[682]
y[684]
y[686]
y[688]
y[689]
y[692]
y[697]
y[698]
y[700]
y[705]
y[708]
y[713]
y[714]
y[716]
y[720]
y[722]
y[723]
y[724]
y[730]
y[732]
y[739]
y[742]
y[744]
y[745]
y[750]
y[751]
y[752]
y[754]
y[755]
y[756]
y[760]
y[765]
y[767]
y[770]
y[772]
y[773]
y[778]
y[782]
y[784]
y[785]
y[786]
y[789]
y[790]
y[801]
y[804]
y[809]
y[810]
y[812]
y[818]
y[823]
y[824]
y[828]
y[830]
y[831]
y[835]
y[837]
y[844]
y[847]
y[848]
y[854]
y[855]
y[858]
y[864]
y[869]
y[872]
y[873]
y[879]
y[882]
y[883]
y[885]
y[888]
y[892]
y[893]
y[894]
y[895]
y[897]
y[899]
y[905]
y[907]
y[922]
y[923]
y[924]
y[930]
y[932]
y[933]
y[941]
y[944]
y[945]
y[947]
y[951]
y[958]
y[960]
y[963]
y[964]
y[968]
y[979]
y[980]
y[981]
y[985]
y[986]
y[987]
y[989]
y[990]
y[993]
y[995]
y[996]
x[1][271]
x[1][413]
x[1][855]
x[4][29]
x[4][741]
x[4][828]
x[4][904]
x[27][134]
x[27][610]
x[27][903]
x[28][65]
x[28][584]
x[32][316]
x[32][342]
x[34][319]
x[34][349]
x[36][19]
x[36][722]
x[36][767]
x[37][8]
x[39][290]
x[39][346]
x[42][135]
x[42][549]
x[44][50]
x[52][75]
x[52][573]
x[55][286]
x[55][361]
x[55][890]
x[56][270]
x[56][381]
x[58][98]
x[58][601]
x[61][15]
x[62][251]
x[62][420]
x[66][292]
x[66][352]
x[68][249]
x[68][462]
x[68][555]
x[74][226]
x[74][459]
x[74][692]
x[76][315]
x[76][356]
x[76][667]
x[77][207]
x[77][479]
x[77][734]
x[79][63]
x[84][114]
x[86][115]
x[86][504]
x[90][33]
x[94][189]
x[94][451]
x[95][57]
x[98][105]
x[99][86]
x[99][666]
x[102][109]
x[102][626]
x[102][758]
x[104][179]
x[104][570]
x[104][867]
x[104][902]
x[104][924]
x[104][994]
x[109][133]
x[109][607]
x[109][822]
x[112][125]
x[112][596]
x[119][171]
x[119][587]
x[119][795]
x[119][864]
x[127][93]
x[127][629]
x[128][323]
x[128][332]
x[133][136]
x[133][755]
x[133][772]
x[133][798]
x[133][802]
x[138][44]
x[140][259]
x[140][395]
x[140][823]
x[150][219]
x[150][425]
x[151][181]
x[151][675]
x[151][728]
x[151][784]
x[153][321]
x[153][343]
x[153][774]
x[154][130]
x[155][276]
x[155][467]
x[155][542]
x[155][763]
x[158][167]
x[158][526]
x[158][806]
x[159][139]
x[159][525]
x[159][854]
x[164][90]
x[164][623]
x[166][307]
x[166][491]
x[166][496]
x[166][514]
x[166][760]
x[167][217]
x[167][432]
x[170][3]
x[170][700]
x[171][59]
x[171][612]
x[173][169]
x[173][484]
x[174][244]
x[174][416]
x[174][899]
x[175][333]
x[175][374]
x[175][510]
x[176][224]
x[176][440]
x[180][52]
x[180][680]
x[180][898]
x[180][989]
x[181][138]
x[181][578]
x[183][255]
x[183][410]
x[183][749]
x[184][202]
x[184][499]
x[188][127]
x[188][600]
x[191][192]
x[191][639]
x[191][693]
x[191][800]
x[193][128]
x[193][572]
x[195][149]
x[195][560]
x[198][213]
x[198][552]
x[198][735]
x[198][761]
x[200][94]
x[200][565]
x[201][36]
x[204][1]
x[204][663]
x[205][117]
x[205][508]
x[206][284]
x[206][474]
x[206][558]
x[206][780]
x[206][796]
x[206][816]
x[209][64]
x[220][143]
x[220][631]
x[220][835]
x[221][92]
x[221][614]
x[223][325]
x[223][386]
x[223][507]
x[223][838]
x[223][997]
x[225][173]
x[225][539]
x[231][245]
x[231][397]
x[232][339]
x[232][437]
x[232][502]
x[232][604]
x[232][851]
x[236][85]
x[236][665]
x[239][260]
x[239][383]
x[240][39]
x[240][654]
x[243][170]
x[243][512]
x[244][234]
x[244][408]
x[245][225]
x[245][446]
x[246][110]
x[249][154]
x[249][714]
x[249][723]
x[249][977]
x[250][282]
x[250][480]
x[250][518]
x[250][698]
x[250][840]
x[252][300]
x[252][415]
x[252][619]
x[252][876]
x[253][254]
x[253][443]
x[253][703]
x[258][267]
x[258][387]
x[259][272]
x[259][379]
x[261][309]
x[261][375]
x[261][662]
x[264][81]
x[264][635]
x[265][280]
x[265][481]
x[265][524]
x[265][678]
x[273][157]
x[273][497]
x[281][116]
x[281][608]
x[281][831]
x[286][144]
x[286][691]
x[286][863]
x[287][123]
x[287][726]
x[287][852]
x[287][862]
x[287][992]
x[288][49]
x[288][694]
x[288][874]
x[288][963]
x[288][998]
x[289][71]
x[289][688]
x[295][11]
x[295][653]
x[296][269]
x[296][426]
x[296][637]
x[296][805]
x[298][235]
x[298][448]
x[302][73]
x[302][641]
x[302][931]
x[302][983]
x[302][1001]
x[303][69]
x[303][569]
x[304][62]
x[304][590]
x[310][22]
x[310][592]
x[312][223]
x[312][456]
x[312][873]
x[312][901]
x[314][74]
x[314][712]
x[314][745]
x[316][7]
x[316][783]
x[316][847]
x[316][922]
x[317][293]
x[317][407]
x[322][43]
x[322][685]
x[322][944]
x[322][965]
x[324][197]
x[324][493]
x[325][77]
x[325][731]
x[325][732]
x[325][991]
x[326][220]
x[326][501]
x[326][752]
x[332][113]
x[332][677]
x[333][172]
x[333][473]
x[334][48]
x[334][613]
x[335][206]
x[335][457]
x[335][910]
x[341][164]
x[341][551]
x[341][909]
x[342][165]
x[342][535]
x[346][122]
x[346][815]
x[346][932]
x[346][938]
x[346][961]
x[348][242]
x[348][423]
x[350][238]
x[350][441]
x[350][768]
x[351][25]
x[356][261]
x[356][450]
x[356][591]
x[358][191]
x[358][470]
x[358][990]
x[362][256]
x[362][400]
x[365][91]
x[365][958]
x[369][250]
x[369][503]
x[369][650]
x[369][830]
x[370][83]
x[370][636]
x[370][787]
x[372][194]
x[373][176]
x[373][517]
x[373][964]
x[380][298]
x[380][546]
x[380][557]
x[380][681]
x[380][725]
x[384][186]
x[384][628]
x[384][832]
x[387][68]
x[387][643]
x[390][76]
x[392][177]
x[392][490]
x[395][150]
x[395][634]
x[395][706]
x[396][84]
x[396][593]
x[396][888]
x[397][287]
x[397][376]
x[397][744]
x[397][960]
x[398][180]
x[398][556]
x[398][793]
x[398][839]
x[406][218]
x[406][534]
x[406][740]
x[406][916]
x[406][920]
x[406][950]
x[407][285]
x[407][519]
x[407][541]
x[407][778]
x[407][789]
x[407][945]
x[408][34]
x[410][142]
x[410][559]
x[410][759]
x[411][362]
x[411][378]
x[411][679]
x[411][696]
x[411][765]
x[411][886]
x[411][925]
x[413][302]
x[413][421]
x[413][547]
x[413][809]
x[413][825]
x[416][78]
x[416][687]
x[416][892]
x[416][999]
x[418][96]
x[418][532]
x[421][190]
x[421][516]
x[421][948]
x[423][188]
x[423][482]
x[428][158]
x[428][647]
x[428][748]
x[428][801]
x[431][326]
x[431][370]
x[431][746]
x[431][775]
x[431][860]
x[432][303]
x[432][357]
x[435][2]
x[435][878]
x[435][979]
x[438][103]
x[438][617]
x[438][833]
x[439][294]
x[439][455]
x[439][567]
x[439][695]
x[443][273]
x[443][398]
x[443][750]
x[443][829]
x[448][72]
x[448][672]
x[448][978]
x[451][304]
x[451][354]
x[453][232]
x[453][594]
x[453][644]
x[453][856]
x[453][933]
x[456][82]
x[456][627]
x[457][100]
x[459][185]
x[459][609]
x[459][683]
x[459][937]
x[466][20]
x[466][721]
x[466][843]
x[466][884]
x[467][79]
x[467][582]
x[468][209]
x[468][454]
x[470][53]
x[470][794]
x[473][26]
x[473][911]
x[473][993]
x[479][12]
x[479][669]
x[481][147]
x[481][581]
x[481][764]
x[489][313]
x[489][444]
x[489][463]
x[494][237]
x[494][418]
x[494][908]
x[497][275]
x[497][380]
x[497][986]
x[501][119]
x[501][580]
x[502][187]
x[502][538]
x[502][788]
x[504][9]
x[504][973]
x[505][230]
x[505][531]
x[505][697]
x[505][923]
x[505][930]
x[507][121]
x[507][682]
x[510][305]
x[510][335]
x[511][153]
x[511][488]
x[513][236]
x[513][427]
x[514][101]
x[514][562]
x[516][0]
x[516][611]
x[517][137]
x[517][561]
x[517][882]
x[523][24]
x[523][893]
x[523][988]
x[525][18]
x[525][705]
x[525][797]
x[526][311]
x[526][337]
x[530][168]
x[530][536]
x[535][208]
x[535][563]
x[535][633]
x[536][288]
x[536][351]
x[545][240]
x[545][461]
x[545][710]
x[545][782]
x[553][239]
x[553][431]
x[555][160]
x[555][500]
x[556][241]
x[556][523]
x[556][676]
x[557][95]
x[557][785]
x[557][848]
x[557][905]
x[558][140]
x[567][314]
x[567][353]
x[570][221]
x[570][483]
x[570][739]
x[570][781]
x[576][322]
x[576][438]
x[576][566]
x[576][730]
x[576][817]
x[579][145]
x[579][598]
x[579][777]
x[581][320]
x[581][390]
x[581][545]
x[581][896]
x[581][928]
x[584][283]
x[584][368]
x[585][296]
x[585][382]
x[585][756]
x[588][212]
x[588][471]
x[588][957]
x[590][295]
x[590][389]
x[595][266]
x[595][574]
x[595][585]
x[595][906]
x[595][907]
x[603][205]
x[603][720]
x[603][813]
x[603][868]
x[603][895]
x[603][926]
x[605][129]
x[605][564]
x[610][268]
x[610][464]
x[610][529]
x[610][939]
x[615][54]
x[615][690]
x[618][89]
x[618][597]
x[619][159]
x[622][10]
x[622][974]
x[625][184]
x[625][472]
x[625][877]
x[626][108]
x[626][724]
x[626][858]
x[626][941]
x[626][966]
x[628][21]
x[628][699]
x[631][107]
x[631][642]
x[631][865]
x[632][17]
x[633][394]
x[633][442]
x[633][485]
x[633][520]
x[633][624]
x[633][836]
x[636][243]
x[636][436]
x[636][716]
x[637][327]
x[637][428]
x[637][543]
x[637][571]
x[637][866]
x[638][301]
x[638][377]
x[638][940]
x[638][954]
x[639][364]
x[639][401]
x[639][417]
x[639][718]
x[642][222]
x[642][468]
x[642][713]
x[644][257]
x[644][399]
x[644][953]
x[646][131]
x[646][715]
x[646][790]
x[646][871]
x[646][897]
x[648][151]
x[648][505]
x[649][163]
x[649][673]
x[649][771]
x[649][919]
x[649][935]
x[652][229]
x[652][475]
x[652][776]
x[652][826]
x[653][14]
x[653][921]
x[656][289]
x[656][414]
x[656][664]
x[656][845]
x[658][369]
x[658][424]
x[658][452]
x[658][528]
x[658][955]
x[658][985]
x[667][51]
x[667][606]
x[673][264]
x[673][544]
x[673][668]
x[673][786]
x[673][883]
x[673][987]
x[675][355]
x[675][388]
x[675][478]
x[675][834]
x[675][846]
x[676][365]
x[676][422]
x[676][522]
x[676][553]
x[676][620]
x[676][947]
x[677][200]
x[677][439]
x[678][340]
x[678][392]
x[678][419]
x[679][13]
x[679][754]
x[682][111]
x[682][738]
x[682][799]
x[682][821]
x[682][869]
x[684][210]
x[684][577]
x[684][757]
x[684][810]
x[684][861]
x[684][913]
x[686][228]
x[686][548]
x[686][615]
x[688][262]
x[688][404]
x[689][155]
x[689][513]
x[689][812]
x[692][27]
x[692][656]
x[692][972]
x[697][201]
x[697][684]
x[697][766]
x[698][46]
x[698][632]
x[700][253]
x[700][393]
x[705][281]
x[705][373]
x[705][967]
x[708][156]
x[708][655]
x[708][769]
x[713][204]
x[713][466]
x[714][347]
x[714][409]
x[714][495]
x[714][661]
x[714][807]
x[714][820]
x[716][38]
x[716][586]
x[720][247]
x[720][460]
x[720][707]
x[720][942]
x[722][99]
x[722][736]
x[722][804]
x[722][872]
x[722][887]
x[722][996]
x[723][227]
x[723][449]
x[724][318]
x[724][330]
x[730][162]
x[730][575]
x[730][711]
x[732][118]
x[732][550]
x[739][297]
x[739][363]
x[742][182]
x[742][521]
x[742][717]
x[744][102]
x[744][630]
x[744][762]
x[745][178]
x[745][458]
x[750][16]
x[750][894]
x[750][943]
x[751][345]
x[751][405]
x[751][527]
x[751][589]
x[751][936]
x[752][106]
x[752][753]
x[752][814]
x[752][915]
x[752][918]
x[754][198]
x[754][476]
x[754][818]
x[755][344]
x[755][360]
x[755][533]
x[755][791]
x[756][233]
x[756][583]
x[756][648]
x[756][702]
x[760][312]
x[760][331]
x[765][42]
x[765][792]
x[765][819]
x[765][949]
x[767][30]
x[767][708]
x[767][853]
x[770][87]
x[770][701]
x[770][803]
x[772][141]
x[772][658]
x[772][850]
x[772][859]
x[773][126]
x[773][498]
x[778][132]
x[778][511]
x[782][310]
x[784][61]
x[784][671]
x[784][946]
x[785][146]
x[785][494]
x[786][32]
x[786][770]
x[786][824]
x[789][40]
x[789][660]
x[789][879]
x[790][161]
x[790][645]
x[790][849]
x[790][917]
x[790][929]
x[801][35]
x[801][625]
x[804][45]
x[809][279]
x[809][477]
x[809][649]
x[809][742]
x[809][875]
x[809][900]
x[810][350]
x[810][371]
x[810][530]
x[810][779]
x[812][112]
x[812][579]
x[818][56]
x[818][729]
x[818][959]
x[818][981]
x[823][88]
x[823][971]
x[824][47]
x[824][914]
x[824][995]
x[828][215]
x[828][605]
x[828][657]
x[830][308]
x[830][336]
x[830][956]
x[831][299]
x[831][341]
x[835][41]
x[835][733]
x[835][891]
x[835][962]
x[835][975]
x[837][277]
x[837][411]
x[837][674]
x[844][334]
x[844][435]
x[844][506]
x[844][880]
x[844][912]
x[844][970]
x[847][183]
x[847][621]
x[847][808]
x[847][841]
x[848][265]
x[848][385]
x[854][248]
x[854][391]
x[855][104]
x[855][595]
x[858][166]
x[858][469]
x[864][291]
x[864][338]
x[869][60]
x[869][616]
x[869][870]
x[872][324]
x[872][358]
x[872][709]
x[873][124]
x[873][689]
x[873][844]
x[879][55]
x[879][602]
x[882][274]
x[882][366]
x[883][231]
x[883][486]
x[883][719]
x[883][773]
x[885][120]
x[885][537]
x[888][196]
x[888][447]
x[892][199]
x[892][453]
x[893][211]
x[893][489]
x[893][743]
x[894][329]
x[894][402]
x[894][540]
x[894][969]
x[895][252]
x[895][403]
x[897][306]
x[897][367]
x[897][842]
x[897][968]
x[899][23]
x[905][28]
x[907][174]
x[907][465]
x[922][328]
x[922][348]
x[922][952]
x[923][31]
x[923][686]
x[924][317]
x[924][372]
x[924][646]
x[930][214]
x[930][429]
x[932][193]
x[932][509]
x[933][4]
x[941][37]
x[941][670]
x[941][889]
x[944][263]
x[944][554]
x[944][568]
x[944][603]
x[945][148]
x[945][487]
x[947][67]
x[947][576]
x[951][6]
x[958][175]
x[958][651]
x[958][652]
x[960][80]
x[960][727]
x[960][827]
x[960][951]
x[963][359]
x[963][406]
x[963][434]
x[964][58]
x[968][70]
x[968][638]
x[968][857]
x[979][246]
x[979][412]
x[979][885]
x[980][278]
x[980][445]
x[980][618]
x[980][837]
x[981][195]
x[981][588]
x[981][747]
x[985][258]
x[985][384]
x[986][152]
x[986][811]
x[986][881]
x[986][984]
x[987][5]
x[987][737]
x[987][934]
x[989][66]
x[989][704]
x[989][751]
x[990][216]
x[990][433]
x[990][982]
x[990][1000]
x[993][203]
x[993][492]
x[995][97]
x[995][640]
x[995][927]
x[995][976]
x[996][396]
x[996][430]
x[996][515]
x[996][599]
x[996][622]
x[996][659]
x[996][980]
Obj: 346.0
